TOUR_SECTION
1
163
91
95
29
42
146
168
190
118
110
47
133
18
145
34
102
37
188
23
69
36
89
10
20
98
129
142
48
181
121
74
171
77
132
159
24
62
26
54
201
67
32
33
198
167
70
192
125
81
150
191
13
166
108
122
115
173
46
30
92
50
56
59
143
58
15
131
66
14
100
175
86
88
137
28
12
149
183
27
107
71
104
158
21
25
90
153
85
79
65
117
161
176
64
6
160
124
116
68
4
51
3
57
180
99
154
45
197
61
162
141
72
39
82
5
87
97
78
101
134
9
17
157
120
63
60
128
165
195
193
8
140
112
35
111
22
106
138
196
31
38
182
52
113
147
174
187
19
179
41
76
114
177
40
105
169
178
2
164
43
184
11
119
44
194
186
127
49
75
151
73
185
94
199
155
84
170
152
93
96
130
83
136
189
55
148
16
123
53
126
80
200
135
7
139
103
109
156
144
172
-1
EOF